p cnf 16 225
1 2 3 0
-1 -2 -3 0
1 5 9 0
-1 -5 -9 0
2 3 4 0
-2 -3 -4 0
5 9 13 0
-5 -9 -13 0
5 6 7 0
-5 -6 -7 0
2 6 10 0
-2 -6 -10 0
6 7 8 0
-6 -7 -8 0
6 10 14 0
-6 -10 -14 0
9 10 11 0
-9 -10 -11 0
3 7 11 0
-3 -7 -11 0
10 11 12 0
-10 -11 -12 0
7 11 15 0
-7 -11 -15 0
13 14 15 0
-13 -14 -15 0
4 8 12 0
-4 -8 -12 0
14 15 16 0
-14 -15 -16 0
8 12 16 0
-8 -12 -16 0
-1 -2 -5 -6 -9 -10 -13 -14 0
1 2 -5 -6 -9 -10 -13 -14 0
-1 -2 5 6 -9 -10 -13 -14 0
1 2 5 6 -9 -10 -13 -14 0
-1 -2 -5 -6 9 10 -13 -14 0
1 2 -5 -6 9 10 -13 -14 0
-1 -2 5 6 9 10 -13 -14 0
1 2 5 6 9 10 -13 -14 0
-1 -2 -5 -6 -9 -10 13 14 0
1 2 -5 -6 -9 -10 13 14 0
-1 -2 5 6 -9 -10 13 14 0
1 2 5 6 -9 -10 13 14 0
-1 -2 -5 -6 9 10 13 14 0
1 2 -5 -6 9 10 13 14 0
-1 -2 5 6 9 10 13 14 0
1 2 5 6 9 10 13 14 0
-1 -3 -5 -7 -9 -11 -13 -15 0
1 3 -5 -7 -9 -11 -13 -15 0
-1 -3 5 7 -9 -11 -13 -15 0
1 3 5 7 -9 -11 -13 -15 0
-1 -3 -5 -7 9 11 -13 -15 0
1 3 -5 -7 9 11 -13 -15 0
-1 -3 5 7 9 11 -13 -15 0
1 3 5 7 9 11 -13 -15 0
-1 -3 -5 -7 -9 -11 13 15 0
1 3 -5 -7 -9 -11 13 15 0
-1 -3 5 7 -9 -11 13 15 0
1 3 5 7 -9 -11 13 15 0
-1 -3 -5 -7 9 11 13 15 0
1 3 -5 -7 9 11 13 15 0
-1 -3 5 7 9 11 13 15 0
1 3 5 7 9 11 13 15 0
-1 -4 -5 -8 -9 -12 -13 -16 0
1 4 -5 -8 -9 -12 -13 -16 0
-1 -4 5 8 -9 -12 -13 -16 0
1 4 5 8 -9 -12 -13 -16 0
-1 -4 -5 -8 9 12 -13 -16 0
1 4 -5 -8 9 12 -13 -16 0
-1 -4 5 8 9 12 -13 -16 0
1 4 5 8 9 12 -13 -16 0
-1 -4 -5 -8 -9 -12 13 16 0
1 4 -5 -8 -9 -12 13 16 0
-1 -4 5 8 -9 -12 13 16 0
1 4 5 8 -9 -12 13 16 0
-1 -4 -5 -8 9 12 13 16 0
1 4 -5 -8 9 12 13 16 0
-1 -4 5 8 9 12 13 16 0
1 4 5 8 9 12 13 16 0
-2 -3 -6 -7 -10 -11 -14 -15 0
2 3 -6 -7 -10 -11 -14 -15 0
-2 -3 6 7 -10 -11 -14 -15 0
2 3 6 7 -10 -11 -14 -15 0
-2 -3 -6 -7 10 11 -14 -15 0
2 3 -6 -7 10 11 -14 -15 0
-2 -3 6 7 10 11 -14 -15 0
2 3 6 7 10 11 -14 -15 0
-2 -3 -6 -7 -10 -11 14 15 0
2 3 -6 -7 -10 -11 14 15 0
-2 -3 6 7 -10 -11 14 15 0
2 3 6 7 -10 -11 14 15 0
-2 -3 -6 -7 10 11 14 15 0
2 3 -6 -7 10 11 14 15 0
-2 -3 6 7 10 11 14 15 0
2 3 6 7 10 11 14 15 0
-2 -4 -6 -8 -10 -12 -14 -16 0
2 4 -6 -8 -10 -12 -14 -16 0
-2 -4 6 8 -10 -12 -14 -16 0
2 4 6 8 -10 -12 -14 -16 0
-2 -4 -6 -8 10 12 -14 -16 0
2 4 -6 -8 10 12 -14 -16 0
-2 -4 6 8 10 12 -14 -16 0
2 4 6 8 10 12 -14 -16 0
-2 -4 -6 -8 -10 -12 14 16 0
2 4 -6 -8 -10 -12 14 16 0
-2 -4 6 8 -10 -12 14 16 0
2 4 6 8 -10 -12 14 16 0
-2 -4 -6 -8 10 12 14 16 0
2 4 -6 -8 10 12 14 16 0
-2 -4 6 8 10 12 14 16 0
2 4 6 8 10 12 14 16 0
-3 -4 -7 -8 -11 -12 -15 -16 0
3 4 -7 -8 -11 -12 -15 -16 0
-3 -4 7 8 -11 -12 -15 -16 0
3 4 7 8 -11 -12 -15 -16 0
-3 -4 -7 -8 11 12 -15 -16 0
3 4 -7 -8 11 12 -15 -16 0
-3 -4 7 8 11 12 -15 -16 0
3 4 7 8 11 12 -15 -16 0
-3 -4 -7 -8 -11 -12 15 16 0
3 4 -7 -8 -11 -12 15 16 0
-3 -4 7 8 -11 -12 15 16 0
3 4 7 8 -11 -12 15 16 0
-3 -4 -7 -8 11 12 15 16 0
3 4 -7 -8 11 12 15 16 0
-3 -4 7 8 11 12 15 16 0
3 4 7 8 11 12 15 16 0
-1 -5 -2 -6 -3 -7 -4 -8 0
1 5 -2 -6 -3 -7 -4 -8 0
-1 -5 2 6 -3 -7 -4 -8 0
1 5 2 6 -3 -7 -4 -8 0
-1 -5 -2 -6 3 7 -4 -8 0
1 5 -2 -6 3 7 -4 -8 0
-1 -5 2 6 3 7 -4 -8 0
1 5 2 6 3 7 -4 -8 0
-1 -5 -2 -6 -3 -7 4 8 0
1 5 -2 -6 -3 -7 4 8 0
-1 -5 2 6 -3 -7 4 8 0
1 5 2 6 -3 -7 4 8 0
-1 -5 -2 -6 3 7 4 8 0
1 5 -2 -6 3 7 4 8 0
-1 -5 2 6 3 7 4 8 0
1 5 2 6 3 7 4 8 0
-1 -9 -2 -10 -3 -11 -4 -12 0
1 9 -2 -10 -3 -11 -4 -12 0
-1 -9 2 10 -3 -11 -4 -12 0
1 9 2 10 -3 -11 -4 -12 0
-1 -9 -2 -10 3 11 -4 -12 0
1 9 -2 -10 3 11 -4 -12 0
-1 -9 2 10 3 11 -4 -12 0
1 9 2 10 3 11 -4 -12 0
-1 -9 -2 -10 -3 -11 4 12 0
1 9 -2 -10 -3 -11 4 12 0
-1 -9 2 10 -3 -11 4 12 0
1 9 2 10 -3 -11 4 12 0
-1 -9 -2 -10 3 11 4 12 0
1 9 -2 -10 3 11 4 12 0
-1 -9 2 10 3 11 4 12 0
1 9 2 10 3 11 4 12 0
-1 -13 -2 -14 -3 -15 -4 -16 0
1 13 -2 -14 -3 -15 -4 -16 0
-1 -13 2 14 -3 -15 -4 -16 0
1 13 2 14 -3 -15 -4 -16 0
-1 -13 -2 -14 3 15 -4 -16 0
1 13 -2 -14 3 15 -4 -16 0
-1 -13 2 14 3 15 -4 -16 0
1 13 2 14 3 15 -4 -16 0
-1 -13 -2 -14 -3 -15 4 16 0
1 13 -2 -14 -3 -15 4 16 0
-1 -13 2 14 -3 -15 4 16 0
1 13 2 14 -3 -15 4 16 0
-1 -13 -2 -14 3 15 4 16 0
1 13 -2 -14 3 15 4 16 0
-1 -13 2 14 3 15 4 16 0
1 13 2 14 3 15 4 16 0
-5 -9 -6 -10 -7 -11 -8 -12 0
5 9 -6 -10 -7 -11 -8 -12 0
-5 -9 6 10 -7 -11 -8 -12 0
5 9 6 10 -7 -11 -8 -12 0
-5 -9 -6 -10 7 11 -8 -12 0
5 9 -6 -10 7 11 -8 -12 0
-5 -9 6 10 7 11 -8 -12 0
5 9 6 10 7 11 -8 -12 0
-5 -9 -6 -10 -7 -11 8 12 0
5 9 -6 -10 -7 -11 8 12 0
-5 -9 6 10 -7 -11 8 12 0
5 9 6 10 -7 -11 8 12 0
-5 -9 -6 -10 7 11 8 12 0
5 9 -6 -10 7 11 8 12 0
-5 -9 6 10 7 11 8 12 0
5 9 6 10 7 11 8 12 0
-5 -13 -6 -14 -7 -15 -8 -16 0
5 13 -6 -14 -7 -15 -8 -16 0
-5 -13 6 14 -7 -15 -8 -16 0
5 13 6 14 -7 -15 -8 -16 0
-5 -13 -6 -14 7 15 -8 -16 0
5 13 -6 -14 7 15 -8 -16 0
-5 -13 6 14 7 15 -8 -16 0
5 13 6 14 7 15 -8 -16 0
-5 -13 -6 -14 -7 -15 8 16 0
5 13 -6 -14 -7 -15 8 16 0
-5 -13 6 14 -7 -15 8 16 0
5 13 6 14 -7 -15 8 16 0
-5 -13 -6 -14 7 15 8 16 0
5 13 -6 -14 7 15 8 16 0
-5 -13 6 14 7 15 8 16 0
5 13 6 14 7 15 8 16 0
-9 -13 -10 -14 -11 -15 -12 -16 0
9 13 -10 -14 -11 -15 -12 -16 0
-9 -13 10 14 -11 -15 -12 -16 0
9 13 10 14 -11 -15 -12 -16 0
-9 -13 -10 -14 11 15 -12 -16 0
9 13 -10 -14 11 15 -12 -16 0
-9 -13 10 14 11 15 -12 -16 0
9 13 10 14 11 15 -12 -16 0
-9 -13 -10 -14 -11 -15 12 16 0
9 13 -10 -14 -11 -15 12 16 0
-9 -13 10 14 -11 -15 12 16 0
9 13 10 14 -11 -15 12 16 0
-9 -13 -10 -14 11 15 12 16 0
9 13 -10 -14 11 15 12 16 0
-9 -13 10 14 11 15 12 16 0
9 13 10 14 11 15 12 16 0
1 -1 0